20	5
0	4	1	3	2	4
1	1	13
2	1	13
3	1	14
4	1	19
5	0
6	1	8
7	1	10
8	1	5
9	1	11
10	1	17
11	1	14
12	1	20
13	2	19	6
14	0
15	1	12
16	1	7
17	1	9
18	1	15
19	1	21
20	1	21
21	0
0	0	0	0	0	0	0
1	5	5	2	3	1	2
2	8	2	5	5	1	5
3	2	4	4	4	4	1
4	1	2	2	5	1	3
5	9	2	2	1	4	3
6	2	3	4	2	1	3
7	9	5	1	1	5	2
8	7	4	3	1	3	5
9	7	5	4	5	2	3
10	8	3	3	2	4	2
11	5	3	3	5	3	3
12	6	2	2	3	5	3
13	2	1	5	1	4	2
14	8	5	1	2	5	5
15	5	2	5	1	4	5
16	10	2	1	3	3	1
17	1	4	5	4	3	3
18	3	3	1	4	3	1
19	4	1	3	5	2	5
20	7	3	5	1	3	3
21	0	0	0	0	0	0
5	5	5	5	5
